s td 178 10 244
b 1 1 26 144
b 2 7 102 213 214
b 3 8 73 131 159
b 4 10 97 132 240
b 5 13 106 146 241
b 6 17 101 118 236
b 7 19 91 170 190
b 8 9 24 97 192
b 9 27 71 137 234
b 10 29 57 83 213
b 11 31 101 119 200
b 12 14 32 74 84
b 13 33 93 168 190
b 14 37 86 111 120
b 15 6 38 40 180
b 16 43 79 143 186
b 17 44 78 79 147
b 18 46 81 160 233
b 19 47 59 121 235
b 20 3 48 203 244
b 21 49 67 182 210
b 22 56 61 136 145
b 23 28 60 97 108
b 24 16 64 120 161
b 25 39 59 65 206
b 26 55 66 81 164
b 27 3 69 199 221
b 28 42 70 184 216
b 29 77 87 213 215
b 30 74 80 105 239
b 31 15 87 213 215
b 32 15 140 213 215
b 33 89 125 234 237
b 34 90 92 186 225
b 35 92 186 189 225
b 36 51 94 209 234
b 37 61 75 95 204
b 38 61 96 136 232
b 39 21 53 61 98
b 40 38 99 138 150
b 41 68 107 134 221
b 42 68 100 134 221
b 43 100 134 178 221
b 44 28 97 108 149
b 45 28 97 149 228
b 46 9 112 227
b 47 35 114 146 158
b 48 26 81 115 183
b 49 101 123 166 191
b 50 51 88 124 234
b 51 51 88 209 234
b 52 41 116 129 210
b 53 41 52 116 210
b 54 52 116 210 229
b 55 71 110 126 133
b 56 2 71 110 126
b 57 2 30 71 110
b 58 30 71 173
b 59 61 136 145 232
b 60 4 26 144 226
b 61 45 79 148 195
b 62 45 79 104 195
b 63 79 104 165 195
b 64 153 178 221
b 65 3 154 169 194
b 66 73 155 198
b 67 73 131 159 193
b 68 73 131 193 198
b 69 21 163 202 205
b 70 20 102 167
b 71 20 34 102 212
b 72 81 160 171 219
b 73 81 160 219 233
b 74 71 137 234
b 75 50 174 186
b 76 50 186 189 225
b 77 18 73 177 210
b 78 178 221
b 79 3 162 187 244
b 80 3 162 203 244
b 81 186 189 225
b 82 9 151 197 223
b 83 73 198
b 84 18 73 210
b 85 36 101 200
b 86 101 181 201 217
b 87 21 152 202 205
b 88 21 85 152 205
b 89 3 203 244
b 90 21 85 207
b 91 21 53 61
b 92 34 102 113 212
b 93 34 102 113 242
b 94 4 26 172 218
b 95 4 26 172 226
b 96 101 122 166 220
b 97 3 199 221
b 98 9 151 208 223
b 99 9 151 208 227
b 100 79 143 186
b 101 26 81 183
b 102 9 227
b 103 9 97 192
b 104 102 213 214
b 105 3 194 199
b 106 22 23 42 216
b 107 53 61 75
b 108 79 143 147
b 109 55 81 183
b 110 97 192 240
b 111 18 67 210
b 112 57 213 214
b 113 23 42 166 230
b 114 125 137 234
b 115 11 42 101 127 216
b 116 42 72 101 196 216
b 117 5 42 101 185 216 236
b 118 36 42 101 128 216 236
b 119 14 42 54 101 216 236
b 120 6 42 62 101 216 236
b 121 25 42 63 101 216 236
b 122 35 42 76 101 216 236
b 123 42 82 101 216 222 236
b 124 42 101 103 206 216 236
b 125 42 101 128 211 216 236
b 126 16 42 101 135 216 236
b 127 42 58 101 142 216 236
b 128 42 101 109 156 216 236
b 129 42 101 179 211 216 236
b 130 42 101 211 216 236
b 131 42 101 168 216 236 238
b 132 42 101 130 216 236 243
b 133 42 101 139 166 176
b 134 42 101 139 166 216 236
b 135 12 42 101 166 224
b 136 12 42 101 166 216 236
b 137 23 42 101 166 216 236
b 138 25 42 101 166 216 236
b 139 42 58 101 166 216 236
b 140 42 101 109 166 216 236
b 141 42 101 130 166 216 236
b 142 42 117 157 166 216 236
b 143 42 117 166 175 216 236
b 144 42 166 175 181 216 236
b 145 42 101 166 181 216 236
b 146 42 101 166 185 216 236
b 147 42 101 166 191 216 236
b 148 42 101 166 216 222 236
b 149 16 59 74 120 190
b 150 122 141 146 188 231
b 151 6 38 42 101 166 216 236
b 152 14 42 74 101 166 216 236
b 153 35 42 101 146 166 216 236
b 154 42 101 127 166 216 231 236
b 155 42 101 122 146 166 188 216 231 236
b 156 42 101 166 188 196 216 236
b 157 38 42 101 146 166 188 216 231 236
b 158 38 42 74 101 146 166 188 216 236
b 159 38 42 59 74 101 146 166 216 236
b 160 16 42 59 74 101 166 190 216 236
b 161 38 42 59 74 101 166 190 216 236
b 162 42 59 74 101 166 190 216 236
b 163 42 101 166 168 190 216 236
b 164 42 59 101 166 190 216 236
b 165 42 59 101 166 206 216 236
b 166 59 101 166 206 216 236
b 167 39 59 206
b 168 39 59 235
b 169 18 39 53 67 137 143 183 192 199 214
b 170 39 53 67 137 143 183 192 199 214 235
b 171 53 67 75 137 143 183 192 199 214 235
b 172 55 57 67 75 125 147 183 194 235 240
b 173 57 67 75 125 147 183 194 214 235 240
b 174 67 75 125 137 147 183 194 214 235 240
b 175 67 75 137 143 147 183 192 199 214 235
b 176 67 75 137 147 183 192 199 214 235 240
b 177 67 75 137 147 183 194 199 214 235 240
b 178 194 199 214 235 240
1 60
2 104
3 67
4 110
5 159
6 165
7 164
8 103
9 74
10 112
11 85
12 152
13 163
14 149
15 151
16 100
17 108
18 73
19 168
20 89
21 111
22 59
23 44
24 149
25 167
26 109
27 97
28 165
29 31
30 162
31 32
32 112
33 114
34 35
35 81
36 51
37 107
38 59
39 91
40 161
41 42
42 43
43 78
44 45
45 110
46 102
47 153
48 101
49 147
50 51
51 114
52 53
53 54
54 111
55 56
56 57
57 58
58 74
59 107
60 95
61 62
62 63
63 108
64 78
65 105
66 83
67 68
68 83
69 87
70 71
71 92
72 73
73 109
74 114
75 76
76 81
77 84
78 97
79 80
80 89
81 100
82 98
83 84
84 111
85 118
86 145
87 88
88 90
89 105
90 91
91 107
92 93
93 104
94 95
95 101
96 155
97 105
98 99
99 102
100 108
101 109
102 103
103 110
104 112
105 177
106 137
107 171
108 175
109 172
110 176
111 169
112 173
113 137
114 174
115 154
116 156
117 146
118 125
119 152
120 151
121 138
122 153
123 148
124 165
125 130
126 160
127 139
128 140
129 130
130 165
131 163
132 141
133 134
134 165
135 136
136 165
137 165
138 165
139 165
140 165
141 165
142 143
143 144
144 145
145 165
146 165
147 165
148 165
149 160
150 155
151 161
152 162
153 159
154 157
155 157
156 158
157 158
158 159
159 161
160 162
161 162
162 164
163 164
164 165
165 167
165 166
167 168
168 170
169 170
170 171
171 175
172 173
173 174
174 177
175 176
176 177
177 178
